NAME : mr15
COMMENT : 15-city problem (DISC)
TYPE : TSP
DIMENSION : 15
EDGE_WEIGHT_TYPE : EUC_2D
NODE_COORD_SECTION
1 85 22
2 18 17
3 6 5
4 37 4
5 28 21
6 54 100
7 31 38
8 31 77
9 12 48
10 25 51
11 92 95
12 27 11
13 72 47
14 87 15
15 81 54
EOF
